c   #vars: 72   #clauses: 333   #literals: 940
c 
p cnf 72 333
10 40 41 -50 0
-2 -3 0
-4 -5 0
15 16 58 59 0
15 16 27 28 0
-6 -7 0
-8 -9 0
1 48 -55 -68 0
-12 -13 0
-15 -16 0
1 55 56 -63 0
-17 -18 0
-19 -20 0
-21 -22 0
-23 -24 0
-25 -26 0
-27 -28 0
-29 -30 0
-31 -32 0
-33 -34 0
10 -22 -40 49 0
-36 -37 0
-38 -39 0
-40 -41 0
38 39 58 59 0
38 39 63 64 0
-42 -43 0
-44 -45 0
-46 -47 0
-10 21 22 49 0
15 16 -35 52 0
40 41 55 56 0
-50 -51 0
-35 44 45 57 0
-53 -54 0
-55 -56 0
10 -22 49 -50 0
-18 35 -55 57 0
-17 19 20 62 0
-58 -59 0
36 37 69 70 0
12 13 69 70 0
-60 -61 0
2 3 55 56 0
14 29 30 -43 0
14 -30 42 43 0
8 9 58 59 0
-63 -64 0
-65 -66 0
-67 -68 0
-69 -70 0
17 18 67 68 0
-71 -72 0
6 7 55 56 0
10 40 41 -49 0
-9 21 22 49 0
14 29 30 -72 0
-16 35 52 -55 0
-1 -56 0
6 7 44 45 0
-32 35 52 -55 0
-1 -64 0
6 7 65 66 0
-2 -29 0
-3 -30 0
-2 -31 0
-3 -32 0
8 9 60 61 0
-2 -38 0
-3 -39 0
-2 -55 0
-3 -56 0
-2 -60 0
-3 -61 0
11 -50 53 54 0
-4 -27 0
-5 -28 0
33 34 67 68 0
-4 -33 0
-5 -34 0
2 3 60 61 0
-4 -55 0
-5 -56 0
44 45 60 61 0
14 -47 71 72 0
-5 -62 0
19 20 44 45 0
15 16 44 45 0
12 13 33 34 0
-6 -44 0
-7 -45 0
12 13 25 26 0
-6 -53 0
-7 -54 0
11 50 51 -65 0
-6 -55 0
-7 -56 0
25 26 50 51 0
-6 -65 0
-7 -66 0
35 55 56 -57 0
-6 -67 0
-7 -68 0
19 20 58 59 0
-8 -27 0
-9 -28 0
19 20 42 43 0
-8 -40 0
-9 -41 0
35 -52 55 56 0
-8 -49 0
15 16 -32 52 0
25 26 63 64 0
-8 -58 0
-9 -59 0
14 42 43 -72 0
-8 -60 0
-9 -61 0
21 22 60 61 0
-8 -71 0
-9 -72 0
11 53 54 -65 0
1 48 -51 -55 0
-10 -41 0
15 16 42 43 0
31 32 -35 52 0
-10 -51 0
-11 -51 0
2 3 38 39 0
-11 -54 0
40 41 71 72 0
11 -53 65 66 0
15 16 60 61 0
-1 48 67 68 0
-11 -66 0
2 3 31 32 0
12 13 31 32 0
4 5 33 34 0
-12 -25 0
-13 -26 0
-12 -31 0
-13 -32 0
-12 -33 0
-13 -34 0
-12 -69 0
-13 -70 0
-14 -29 0
23 24 36 37 0
-14 -42 0
-14 -46 0
40 41 63 64 0
-18 35 -52 57 0
8 9 40 41 0
-14 -71 0
-15 -27 0
-16 -28 0
14 42 43 -47 0
42 43 53 54 0
-15 -42 0
-16 -43 0
-15 -44 0
-16 -45 0
29 30 50 51 0
-15 -52 0
-18 44 45 57 0
10 -49 50 51 0
-15 -58 0
-16 -59 0
17 18 46 47 0
-15 -60 0
-16 -61 0
1 -48 55 56 0
48 50 51 -68 0
33 34 55 56 0
11 -50 65 66 0
14 -43 46 47 0
1 -55 63 64 0
-1 48 50 51 0
-17 -29 0
-18 -30 0
17 18 29 30 0
-17 -46 0
-18 -47 0
-17 -50 0
-18 -51 0
-17 -57 0
-4 19 20 62 0
27 28 60 61 0
14 -43 71 72 0
-18 -62 0
21 22 38 39 0
-17 -67 0
-18 -68 0
-16 35 52 -57 0
-19 -40 0
-20 -41 0
6 7 53 54 0
-19 -42 0
-20 -43 0
21 22 58 59 0
-19 -44 0
-20 -45 0
14 29 30 -47 0
-19 -58 0
-20 -59 0
-9 10 49 -50 0
14 -30 71 72 0
-20 -62 0
36 37 65 66 0
-21 -36 0
-22 -37 0
8 9 27 28 0
-21 -38 0
-22 -39 0
46 47 65 66 0
-21 -49 0
-16 31 32 52 0
-21 -58 0
-22 -59 0
27 28 53 54 0
-21 -60 0
-22 -61 0
4 5 27 28 0
-21 -67 0
-22 -68 0
23 24 42 43 0
-23 -31 0
-24 -32 0
-23 -36 0
-24 -37 0
-23 -38 0
-24 -39 0
10 -40 50 51 0
-23 -42 0
-24 -43 0
23 24 67 68 0
-23 -67 0
-24 -68 0
-25 -50 0
-26 -51 0
46 47 60 61 0
-25 -55 0
-26 -56 0
-25 -63 0
-26 -64 0
1 48 -63 -68 0
-27 -53 0
-28 -54 0
2 3 29 30 0
-27 -60 0
-28 -61 0
31 32 63 64 0
-29 -50 0
-30 -51 0
23 24 31 32 0
-29 -69 0
-30 -70 0
6 7 67 68 0
-31 -52 0
17 18 -45 57 0
8 9 71 72 0
-31 -63 0
-32 -64 0
-33 -55 0
-34 -56 0
-4 17 18 62 0
-33 -67 0
-34 -68 0
38 39 53 54 0
-9 10 -40 49 0
17 18 -35 57 0
1 -48 63 64 0
-35 -56 0
25 26 55 56 0
35 -45 -52 57 0
23 24 38 39 0
4 5 -19 62 0
21 22 36 37 0
14 46 47 -72 0
-36 -65 0
-37 -66 0
1 48 -51 -63 0
-36 -69 0
-37 -70 0
4 5 55 56 0
-38 -53 0
-39 -54 0
-38 -58 0
-39 -59 0
-32 35 52 -57 0
-38 -63 0
-39 -64 0
19 20 40 41 0
-38 -67 0
-39 -68 0
-40 -55 0
-41 -56 0
21 22 67 68 0
-40 -63 0
-41 -64 0
11 50 51 -53 0
-40 -71 0
-41 -72 0
38 39 67 68 0
-42 -53 0
-43 -54 0
44 45 50 51 0
-44 -50 0
-45 -51 0
-44 -57 0
4 5 -17 62 0
17 18 50 51 0
-44 -60 0
-45 -61 0
35 -45 -55 57 0
-44 -71 0
-45 -72 0
17 18 -19 62 0
48 -51 67 68 0
46 47 69 70 0
-46 -60 0
-47 -61 0
44 45 71 72 0
-46 -65 0
-47 -66 0
29 30 69 70 0
-46 -69 0
-47 -70 0
14 -30 46 47 0
-48 -50 0
8 9 -22 49 0
-48 -67 0
8 9 -10 49 0
